NAME: kroA150
TYPE: TSP
COMMENT: 150-city problem A (Krolak/Felts/Nelson)
DIMENSION: 150
EDGE_WEIGHT_TYPE : EUC_2D
NODE_COORD_SECTION
1 7.19900e+02 7.33110e+02
2 7.19900e+02 7.07700e+02
3 7.58010e+02 7.07700e+02
4 7.58010e+02 7.33110e+02
5 8.08810e+02 7.96600e+02
6 8.08810e+02 8.21990e+02
7 8.08810e+02 9.23590e+02
8 8.08810e+02 8.98200e+02
9 8.08810e+02 8.72790e+02
10 8.08810e+02 8.47400e+02
11 8.59610e+02 7.96600e+02
12 8.59610e+02 8.21990e+02
13 8.59610e+02 8.47400e+02
14 8.59610e+02 8.72790e+02
15 8.59610e+02 8.98200e+02
16 8.59610e+02 9.23590e+02
17 8.59610e+02 9.49000e+02
18 8.59610e+02 9.74390e+02
19 8.59610e+02 9.99800e+02
20 8.59610e+02 1.02520e+03
21 7.58010e+02 1.10141e+03
22 7.32600e+02 1.10141e+03
23 7.58010e+02 1.07600e+03
24 7.32600e+02 1.05061e+03
25 7.32600e+02 1.07600e+03
26 7.58010e+02 1.05061e+03
27 7.32600e+02 1.02520e+03
28 7.58010e+02 1.02520e+03
29 7.58010e+02 9.99800e+02
30 8.08810e+02 1.02520e+03
31 8.08810e+02 9.99800e+02
32 8.08810e+02 9.74390e+02
33 8.08810e+02 9.49000e+02
34 7.58010e+02 9.49000e+02
35 7.58010e+02 9.74390e+02
36 7.32600e+02 9.99800e+02
37 7.32600e+02 9.74390e+02
38 7.32600e+02 9.49000e+02
39 6.81800e+02 9.49000e+02
40 6.81800e+02 9.74390e+02
41 6.81800e+02 9.99800e+02
42 6.81800e+02 1.02520e+03
43 6.56410e+02 1.02520e+03
44 6.56410e+02 9.99800e+02
45 7.58010e+02 8.98200e+02
46 7.58010e+02 9.23590e+02
47 7.32600e+02 8.72790e+02
48 7.32600e+02 8.47400e+02
49 7.58010e+02 8.21990e+02
50 7.58010e+02 8.47400e+02
51 7.58010e+02 8.72790e+02
52 7.32600e+02 8.98200e+02
53 7.32600e+02 9.23590e+02
54 6.05610e+02 7.96600e+02
55 6.05610e+02 8.21990e+02
56 6.05610e+02 8.47400e+02
57 6.05610e+02 8.72790e+02
58 6.05610e+02 8.98200e+02
59 6.05610e+02 9.23590e+02
60 6.05610e+02 9.49000e+02
61 6.05610e+02 9.74390e+02
62 6.31000e+02 9.99800e+02
63 6.05610e+02 9.99800e+02
64 6.31000e+02 1.02520e+03
65 6.05610e+02 1.02520e+03
66 6.31000e+02 1.05061e+03
67 6.31000e+02 1.07600e+03
68 6.56410e+02 1.05061e+03
69 6.56410e+02 1.07600e+03
70 6.31000e+02 1.10141e+03
71 6.56410e+02 1.10141e+03
72 6.81800e+02 1.15221e+03
73 6.81800e+02 1.17760e+03
74 6.81800e+02 1.20301e+03
75 6.81800e+02 1.22840e+03
76 6.81800e+02 1.25381e+03
77 6.81800e+02 1.27920e+03
78 6.81800e+02 1.30461e+03
79 7.32600e+02 1.25381e+03
80 7.32600e+02 1.27920e+03
81 7.32600e+02 1.22840e+03
82 7.32600e+02 1.20301e+03
83 7.32600e+02 1.17760e+03
84 7.32600e+02 1.15221e+03
85 6.05610e+02 1.15221e+03
86 6.05610e+02 1.17760e+03
87 6.05610e+02 1.20301e+03
88 6.05610e+02 1.22840e+03
89 6.05610e+02 1.25381e+03
90 6.05610e+02 1.27920e+03
91 6.05610e+02 1.30461e+03
92 6.05610e+02 1.33000e+03
93 6.56410e+02 1.35539e+03
94 6.81800e+02 1.33000e+03
95 6.81800e+02 1.35539e+03
96 7.32600e+02 1.38080e+03
97 7.32600e+02 1.35539e+03
98 7.32600e+02 1.33000e+03
99 7.32600e+02 1.30461e+03
100 8.08810e+02 1.27920e+03
101 8.08810e+02 1.25381e+03
102 8.08810e+02 1.22840e+03
103 8.08810e+02 1.20301e+03
104 8.08810e+02 1.17760e+03
105 8.08810e+02 1.15221e+03
106 8.59610e+02 1.15221e+03
107 8.59610e+02 1.12680e+03
108 8.59610e+02 1.10141e+03
109 8.59610e+02 1.17760e+03
110 8.59610e+02 1.20301e+03
111 8.59610e+02 1.22840e+03
112 8.59610e+02 1.25381e+03
113 8.59610e+02 1.27920e+03
114 8.08810e+02 1.30461e+03
115 8.08810e+02 1.33000e+03
116 8.08810e+02 1.35539e+03
117 8.08810e+02 1.38080e+03
118 7.83400e+02 1.45699e+03
119 8.08810e+02 1.45699e+03
120 8.34200e+02 1.45699e+03
121 8.59610e+02 1.45699e+03
122 8.59610e+02 1.43160e+03
123 8.59610e+02 1.38080e+03
124 8.59610e+02 1.40619e+03
125 9.35800e+02 1.38080e+03
126 9.35800e+02 1.40619e+03
127 9.35800e+02 1.43160e+03
128 9.35800e+02 1.45699e+03
129 9.35800e+02 1.48240e+03
130 9.35800e+02 1.50779e+03
131 9.35800e+02 1.53320e+03
132 8.59610e+02 1.48240e+03
133 8.59610e+02 1.50779e+03
134 8.59610e+02 1.53320e+03
135 9.35800e+02 1.58400e+03
136 9.61190e+02 1.58400e+03
137 9.35800e+02 1.60939e+03
138 9.61190e+02 1.60939e+03
139 9.86600e+02 1.58400e+03
140 9.86600e+02 1.60939e+03
141 9.35800e+02 1.68561e+03
142 9.61190e+02 1.68561e+03
143 9.86600e+02 1.68561e+03
144 1.01199e+03 1.68561e+03
145 9.86600e+02 1.73641e+03
146 9.61190e+02 1.73641e+03
147 9.35800e+02 1.73641e+03
148 8.34200e+02 1.68561e+03
149 8.08810e+02 1.68561e+03
150 7.83400e+02 1.68561e+03
EOF
